Version identifier: 22.1.1.0 | 2022-11-28 | 9160aff4d
CPXPARAM_ClockType                               1
CPXPARAM_Read_DataCheck                          1
CPXPARAM_Threads                                 1
CPXPARAM_TimeLimit                               7200
CPXPARAM_MIP_Tolerances_AbsMIPGap                0
CPXPARAM_MIP_Tolerances_MIPGap                   0
CPXPARAM_MIP_Tolerances_Integrality              0
Tried aggregator 2 times.
MIP Presolve eliminated 18258 rows and 71 columns.
MIP Presolve modified 22812 coefficients.
Aggregator did 10972 substitutions.
Reduced MIP has 293887 rows, 79350 columns, and 911187 nonzeros.
Reduced MIP has 79350 binaries, 0 generals, 0 SOSs, and 0 indicators.
Presolve time = 4.37 sec. (2316.90 ticks)
Found incumbent of value -336265.000000 after 8.04 sec. (4267.24 ticks)
Probing time = 0.08 sec. (26.03 ticks)
Tried aggregator 1 time.
Detecting symmetries...
MIP Presolve eliminated 820 rows and 0 columns.
Reduced MIP has 293067 rows, 79350 columns, and 908727 nonzeros.
Reduced MIP has 79350 binaries, 0 generals, 0 SOSs, and 0 indicators.
Presolve time = 3.15 sec. (1671.19 ticks)
Probing time = 0.09 sec. (25.79 ticks)
Clique table members: 190285.
MIP emphasis: balance optimality and feasibility.
MIP search method: dynamic search.
Parallel mode: none, using 1 thread.
Root relaxation solution time = 3021.41 sec. (455788.46 ticks)

        Nodes                                         Cuts/
   Node  Left     Objective  IInf  Best Integer    Best Bound    ItCnt     Gap

*     0+    0                      -336265.0000   177970.0000           152.93%
      0     0    83899.1667 38296  -336265.0000    83899.1667   444688  124.95%

Clique cuts applied:  426
Implied bound cuts applied:  48
Zero-half cuts applied:  7256
Lift and project cuts applied:  10
Gomory fractional cuts applied:  51

Root node processing (before b&c):
  Real time             = 7200.31 sec. (1502879.73 ticks)
Sequential b&c:
  Real time             =    0.00 sec. (0.00 ticks)
                          ------------
Total (root+branch&cut) = 7200.31 sec. (1502879.73 ticks)
Solution is feasible.

---------------------
@@@ MIP_time_limit_feasible
>>> Benchmark mc2024_track1_155.cnf k 10 OPT -336265 TimeCost 7732.582904815674 TimeSolve 7225.8121218681335 TimeRead 0.038016319274902344 TimeTrans 506.7327666282654
